
  32    1
  10

   0   0  12 2 3 4 5 6 7 9 10 12 13 15 31 
   7   1   5 28 24 20 18 8 
   2   6   7 29 27 24 23 20 16 14 
   2   9   6 30 29 28 27 25 11 
   7   6   3 19 14 11 
  10   9   7 28 27 26 24 23 22 18 
   4   4   6 29 25 24 23 21 17 
   9   6   5 27 26 23 19 16 
   8   5   6 28 27 24 23 22 18 
  10   7   5 26 24 23 22 18 
   1   8   4 26 24 23 17 
   4   8   4 27 24 23 17 
   4   7   4 27 24 23 22 
   9   7   2 28 25 
   8   8   2 24 23 
   6   4   1 17 
   1   8   1 22 
  10   4   1 25 
   5   3   1 25 
  10   2   1 26 
   3   4   1 26 
  10  10   1 32
   4   4   1 32
   4   5   1 32
   3   8   1 32
   7   6   1 32
   6   9   1 32
   1   9   1 32
   7   4   1 32
   5   2   1 32
   5   7   1 32
   0   0   0 
